24
9
18
23
10
27
27
5
15
29
21
12
32
17
34
34
13
9
14
25
35
18
22
30
16
22
14
14
28
18
23
7
18
30
24
32
19
16
15
10
17
27
17
31
19
17
25
32
21
23
3
33
5
16
24
18
11
27
26
18
30
8
30
13
23
21
23
35
33
31
32
31
8
24
28
9
30
29
31
37
28
20
10
15
18
15
26
27
12
19
7
18
11
19
29
19
28
30
25
23
20
31
19
20
35
23
14
24
21
14
35
28
26
19
5
24
29
22
11
21
20
29
33
29
12
26
28
16
23
25
20
16
27
13
31
34
31
21
21
31
10
32
25
18
23
12
19
26
26
21
30
21
18
18
18
21
28
32
29
6
28
30
30
32
18
27
8
27
28
7
24
31
33
9
29
20
7
38
26
16
21
25
31
18
16
33
28
18
16
30
4
27
21
24
27
13
38
32
10
28
